unsat
((set-logic NIA)
(declare-fun r!1 () Int)
(declare-fun q!3 () Int)
(declare-fun s!0 () Int)
(declare-fun p!5 () Int)
(declare-fun b!2 () Int)
(declare-fun a!4 () Int)
(proof
(let ((?x616 (* q!3 r!1)))
 (let ((?x41 (* q00 r00)))
 (let ((?x1174 (* (- 1) ?x41)))
 (let ((?x37 (* p00 s00)))
 (let ((?x497 (+ ?x37 ?x1174 (* (- 1) (* p!5 s!0)) ?x616)))
 (let (($x494 (>= ?x497 0)))
 (let (($x437 (= ?x497 0)))
 (let ((?x1380 (* q!3 q!3 q!3 q!3 b!2 b!2 r!1 r!1 s!0 s!0 s!0 s!0)))
 (let ((?x1322 (* (- 3) ?x1380)))
 (let ((?x1375 (* q!3 q!3 q!3 q!3 b!2 b!2 r!1 s!0 s!0 s!0 s!0 s!0)))
 (let ((?x904 (* 3 ?x1375)))
 (let ((?x1372 (* q!3 q!3 q!3 q!3 b!2 b!2 s!0 s!0 s!0 s!0 s!0 s!0)))
 (let ((?x903 (* (- 1) ?x1372)))
 (let ((?x1313 (* q!3 q!3 q!3 q!3 b!2 b!2 r!1 r!1 r!1 s!0 s!0 s!0)))
 (let ((?x1294 (* q!3 q!3 q!3 q!3)))
 (let ((?x1285 (* q!3 q!3 q!3 q!3 b!2)))
 (let ((?x238 (* (- 6) (* q!3 q!3 p!5 b!2 r!1 s!0 s!0 s!0 s!0 s!0))))
 (let ((?x782 (* q!3 q!3 q!3 p!5 b!2 b!2 r!1 r!1 r!1 s!0 s!0 s!0)))
 (let ((?x775 (* q!3 q!3 p!5 p!5 b!2 b!2 r!1 r!1 s!0 s!0 s!0 s!0)))
 (let ((?x726 (* q!3 q!3 q!3 p!5 b!2 b!2 r!1 r!1 s!0 s!0 s!0 s!0)))
 (let ((?x670 (* q!3 q!3 p!5 p!5 b!2 b!2 r!1 r!1 r!1 s!0 s!0 s!0)))
 (let ((?x635 (* q!3 q!3 p!5 p!5 b!2 b!2 r!1 s!0 s!0 s!0 s!0 s!0)))
 (let ((?x631 (* q!3 q!3 p!5 p!5 b!2 b!2 s!0 s!0 s!0 s!0 s!0 s!0)))
 (let ((?x627 (* q!3 q!3 q!3 p!5 b!2 b!2 s!0 s!0 s!0 s!0 s!0 s!0)))
 (let ((?x579 (* (- 1) (* q!3 q!3 q!3 a!4 r!1 r!1 r!1 s!0 s!0 s!0))))
 (let ((?x578 (* (- 2) (* q!3 q!3 p!5 b!2 r!1 r!1 r!1 s!0 s!0 s!0))))
 (let ((?x584 (* 2 (* q!3 q!3 a!4 p!5 r!1 r!1 r!1 s!0 s!0 s!0))))
 (let ((?x454 (* 3 (* q!3 a!4 p!5 p!5 r!1 r!1 s!0 s!0 s!0 s!0))))
 (let ((?x564 (* (- 3) (* q!3 p!5 p!5 b!2 r!1 r!1 s!0 s!0 s!0 s!0))))
 (let ((?x388 (* 3 (* q!3 p!5 p!5 b!2 r!1 s!0 s!0 s!0 s!0 s!0))))
 (let ((?x572 (* 6 (* q!3 q!3 p!5 b!2 r!1 r!1 s!0 s!0 s!0 s!0))))
 (let ((?x577 (* 3 (* q!3 q!3 q!3 a!4 r!1 r!1 s!0 s!0 s!0 s!0))))
 (let ((?x567 (* (- 6) (* q!3 q!3 a!4 p!5 r!1 r!1 s!0 s!0 s!0 s!0))))
 (let ((?x232 (* 6 (* q!3 q!3 a!4 p!5 r!1 s!0 s!0 s!0 s!0 s!0))))
 (let ((?x543 (* (- 1) (* q!3 p!5 p!5 p!5 b!2))))
 (let ((?x537 (* (- 1) (* q!3 q!3 q!3 p!5))))
 (let ((?x549 (* (- 1) (* q!3 a!4 p!5 p!5 r!1 r!1 r!1 s!0 s!0 s!0))))
 (let ((?x1808 (* (- 3) (* q!3 a!4 p!5 p!5 r!1 s!0 s!0 s!0 s!0 s!0))))
 (let ((?x407 (* (- 1) (* q!3 q!3 q!3 b!2 s!0 s!0 s!0 s!0 s!0 s!0))))
 (let ((?x394 (* 3 (* q!3 q!3 q!3 b!2 r!1 s!0 s!0 s!0 s!0 s!0))))
 (let ((?x510 (* (- 3) (* q!3 q!3 q!3 b!2 r!1 r!1 s!0 s!0 s!0 s!0))))
 (let ((?x371 (* q!3 q!3 q!3 b!2 r!1 r!1 r!1 s!0 s!0 s!0)))
 (let ((?x361 (* q!3 q!3 q!3 p!5 b!2 b!2 r!1 s!0 s!0 s!0 s!0 s!0)))
 (let ((?x154 (* 2 (* q!3 q!3 p!5 b!2 s!0 s!0 s!0 s!0 s!0 s!0))))
 (let ((?x253 (* (- 1) (* q!3 p!5 p!5 b!2 s!0 s!0 s!0 s!0 s!0 s!0))))
 (let ((?x416 (* (- 1) q!3)))
 (let ((?x133 (+ ?x416 p!5)))
 (let ((?x415 (+ a!4 (* (- 1) b!2))))
 (let ((?x410 (+ r!1 (* (- 1) s!0))))
 (let ((?x205 (* ?x410 ?x410 ?x410 ?x415 ?x133 ?x133 ?x133 s!0 s!0 s!0 q!3 q!3)))
 (let ((?x156 (* (- 2) (* q!3 q!3 a!4 p!5 s!0 s!0 s!0 s!0 s!0 s!0))))
 (let ((?x246 (* (- 3) (* q!3 q!3 q!3 a!4 r!1 s!0 s!0 s!0 s!0 s!0))))
 (let ((?x353 (+ ?x246 ?x156 ?x205 (* q!3 a!4 p!5 p!5 s!0 s!0 s!0 s!0 s!0 s!0) ?x253 ?x154 (* q!3 q!3 q!3 a!4 s!0 s!0 s!0 s!0 s!0 s!0) (* (- 3) (* q!3 q!3 q!3 p!5 b!2)) (* (- 6) ?x361) ?x371 ?x510 ?x394 ?x407 ?x1808 ?x549 ?x537 ?x543 ?x232 ?x567 ?x577 ?x572 ?x388 ?x564 ?x454 ?x584 ?x578 ?x579 (* q!3 p!5 p!5 b!2 r!1 r!1 r!1 s!0 s!0 s!0) (* 3 (* q!3 q!3 p!5 p!5 b!2)) (* 2 ?x627) (* (- 1) ?x631) (* 3 ?x635) ?x670 (* 6 ?x726) (* (- 3) ?x775) (* (- 2) ?x782) ?x238 ?x1285 ?x1294 ?x1313 ?x903 ?x904 ?x1322)))
 (let ((?x618 (* (- 1) ?x616)))
 (let ((?x448 (* p!5 s!0)))
 (let ((?x151 (* (- 1) ?x37)))
 (let ((?x500 (+ ?x151 ?x41 ?x448 ?x618)))
 (let ((?x1854 (* ?x500 ?x353)))
 (let (($x653 (= ?x1854 0)))
 (let ((?x1926 (* q!3 a!4 p!5 p!5 p!5 p!5 r!1 r!1 r!1 r!1 r!1 r!1)))
 (let ((?x1801 (* q!3 q!3 a!4 p!5 p!5 p!5 r!1 r!1 r!1 r!1 r!1 r!1)))
 (let ((?x1384 (* p!5 p!5 p!5 p!5 b!2)))
 (let ((?x1355 (* p!5 p!5 p!5 p!5)))
 (let ((?x780 (* a!4 p!5 p!5 p!5 p!5 p!5 r!1 r!1 r!1 r!1 r!1 s!0)))
 (let ((?x671 (* q!3 a!4 p!5 p!5 p!5 p!5 r!1 r!1 r!1 r!1 r!1 s!0)))
 (let ((?x652 (* q!3 q!3 a!4 p!5 p!5 p!5 r!1 r!1 r!1 r!1 r!1 s!0)))
 (let ((?x651 (* q!3 a!4 p!5 p!5 p!5 p!5 r!1 r!1 r!1 r!1 s!0 s!0)))
 (let ((?x642 (* q!3 q!3 a!4 p!5 p!5 p!5 r!1 r!1 r!1 r!1 s!0 s!0)))
 (let ((?x640 (* a!4 p!5 p!5 p!5 p!5 p!5 r!1 r!1 r!1 s!0 s!0 s!0)))
 (let ((?x634 (* q!3 a!4 p!5 p!5 p!5 p!5 r!1 r!1 r!1 s!0 s!0 s!0)))
 (let ((?x633 (* q!3 q!3 a!4 p!5 p!5 p!5 r!1 r!1 r!1 s!0 s!0 s!0)))
 (let ((?x607 (* (- 1) (* a!4 p!5 p!5 p!5 r!1 r!1 r!1 r!1 r!1 r!1))))
 (let ((?x598 (* 3 (* a!4 p!5 p!5 p!5 r!1 r!1 r!1 r!1 r!1 s!0))))
 (let ((?x479 (* (- 3) (* q!3 a!4 p!5 p!5 r!1 r!1 r!1 r!1 r!1 s!0))))
 (let ((?x480 (* 3 (* q!3 a!4 p!5 p!5 r!1 r!1 r!1 r!1 s!0 s!0))))
 (let ((?x554 (* a!4 p!5 p!5 p!5 p!5 p!5 r!1 r!1 r!1 r!1 r!1 r!1)))
 (let ((?x911 (* (- 1) p!5)))
 (let ((?x535 (+ q!3 ?x911)))
 (let ((?x1354 (+ (* (- 1) a!4) b!2)))
 (let ((?x1291 (+ (* (- 1) r!1) s!0)))
 (let ((?x486 (* ?x1291 ?x1291 ?x1291 ?x1354 ?x1354 ?x535 ?x535 r!1 r!1 r!1 p!5 p!5)))
 (let ((?x590 (* (- 3) (* a!4 p!5 p!5 p!5 r!1 r!1 r!1 r!1 s!0 s!0))))
 (let ((?x443 (* a!4 p!5 p!5 p!5 p!5 p!5 r!1 r!1 r!1 r!1 s!0 s!0)))
 (let ((?x581 (+ (* (- 3) ?x443) (* 3 (* q!3 q!3 p!5 p!5)) ?x590 ?x549 ?x486 ?x537 ?x543 (* (- 1) ?x554) (* a!4 p!5 p!5 p!5 r!1 r!1 r!1 s!0 s!0 s!0) ?x480 ?x479 ?x598 (* q!3 a!4 p!5 p!5 r!1 r!1 r!1 r!1 r!1 r!1) ?x607 (* q!3 a!4 p!5 p!5 p!5) (* (- 1) (* a!4 p!5 p!5 p!5 p!5)) (* (- 3) (* q!3 p!5 p!5 p!5)) ?x633 (* (- 2) ?x634) ?x640 (* (- 3) ?x642) (* 6 ?x651) (* 3 ?x652) (* (- 6) ?x671) (* 3 ?x780) ?x1355 ?x1384 (* (- 1) ?x1801) (* 2 ?x1926))))
 (let ((?x580 (* ?x500 ?x581)))
 (let (($x551 (= ?x580 0)))
 (let (($x452 (not $x551)))
 (let (($x650 (or $x452 (not $x653))))
 (let ((?x550 (+ (* p00 b00 s!0) (* q00 r00 b!2) (* (- 1) (* p00 s00 b!2)) (* (- 1) (* r00 b00 q!3)) (* s00 a00 q!3) (* (- 1) (* q00 a00 s!0)))))
 (let ((?x540 (+ (* q00 a00 r!1) (* (- 1) (* q00 r00 a!4)) (* r00 b00 p!5) (* p00 s00 a!4) (* (- 1) (* s00 a00 p!5)) (* (- 1) (* p00 b00 r!1)))))
 (let ((?x2177 (* p!5 b!2)))
 (let ((?x146 (* q00 a00)))
 (let (($x493 (= (+ ?x146 (* (- 1) (* p00 b00)) (* (- 1) (* q!3 a!4)) ?x2177) 0)))
 (let ((?x1050 (* b!2 r!1)))
 (let ((?x142 (* s00 a00)))
 (let (($x1601 (= (+ ?x142 (* (- 1) (* r00 b00)) (* (- 1) (* a!4 s!0)) ?x1050) 0)))
 (let (($x2163 (and $x437 $x1601 $x493 (= ?x540 0) (= ?x550 0) $x650)))
 (let ((?x421 (+ p!5 ?x416)))
 (let ((?x417 (* ?x410 ?x410 ?x410 ?x415 ?x421 ?x421 ?x421 s!0 s!0 s!0 q!3 q!3)))
 (let ((?x403 (* 2 (* p!5 q!3 q!3 b!2 s!0 s!0 s!0 s!0 s!0 s!0))))
 (let ((?x503 (* (- 2) (* p!5 a!4 q!3 q!3 s!0 s!0 s!0 s!0 s!0 s!0))))
 (let ((?x395 (* (- 1) (* p!5 p!5 q!3 b!2 s!0 s!0 s!0 s!0 s!0 s!0))))
 (let ((?x392 (* (- 3) (* a!4 q!3 q!3 q!3 r!1 s!0 s!0 s!0 s!0 s!0))))
 (let ((?x508 (* (- 6) (* p!5 q!3 q!3 b!2 r!1 s!0 s!0 s!0 s!0 s!0))))
 (let ((?x389 (* 6 (* p!5 a!4 q!3 q!3 r!1 s!0 s!0 s!0 s!0 s!0))))
 (let ((?x385 (* 3 (* p!5 p!5 q!3 b!2 r!1 s!0 s!0 s!0 s!0 s!0))))
 (let ((?x384 (* (- 3) (* p!5 p!5 a!4 q!3 r!1 s!0 s!0 s!0 s!0 s!0))))
 (let ((?x374 (* 3 (* a!4 q!3 q!3 q!3 r!1 r!1 s!0 s!0 s!0 s!0))))
 (let ((?x381 (* 6 (* p!5 q!3 q!3 b!2 r!1 r!1 s!0 s!0 s!0 s!0))))
 (let ((?x378 (* (- 6) (* p!5 a!4 q!3 q!3 r!1 r!1 s!0 s!0 s!0 s!0))))
 (let ((?x375 (* (- 3) (* p!5 p!5 q!3 b!2 r!1 r!1 s!0 s!0 s!0 s!0))))
 (let ((?x373 (* 3 (* p!5 p!5 a!4 q!3 r!1 r!1 s!0 s!0 s!0 s!0))))
 (let ((?x506 (* (- 1) (* a!4 q!3 q!3 q!3 r!1 r!1 r!1 s!0 s!0 s!0))))
 (let ((?x366 (* (- 2) (* p!5 q!3 q!3 b!2 r!1 r!1 r!1 s!0 s!0 s!0))))
 (let ((?x1282 (* 2 (* p!5 a!4 q!3 q!3 r!1 r!1 r!1 s!0 s!0 s!0))))
 (let ((?x2166 (* (- 1) (* p!5 p!5 a!4 q!3 r!1 r!1 r!1 s!0 s!0 s!0))))
 (let ((?x2147 (* (- 1) (* p!5 p!5 p!5 q!3 b!2))))
 (let ((?x1896 (* (- 1) (* p!5 q!3 q!3 q!3))))
 (let ((?x1298 (* p!5 q!3 q!3 q!3 b!2 b!2 s!0 s!0 s!0 s!0 s!0 s!0)))
 (let ((?x1299 (* p!5 p!5 q!3 q!3 b!2 b!2 s!0 s!0 s!0 s!0 s!0 s!0)))
 (let ((?x1307 (* p!5 q!3 q!3 q!3 b!2 b!2 r!1 s!0 s!0 s!0 s!0 s!0)))
 (let ((?x1305 (* p!5 p!5 q!3 q!3 b!2 b!2 r!1 s!0 s!0 s!0 s!0 s!0)))
 (let ((?x1308 (* p!5 p!5 q!3 q!3 b!2 b!2 r!1 r!1 r!1 s!0 s!0 s!0)))
 (let ((?x1312 (* p!5 q!3 q!3 q!3 b!2 b!2 r!1 r!1 r!1 s!0 s!0 s!0)))
 (let ((?x1316 (* p!5 p!5 q!3 q!3 b!2 b!2 r!1 r!1 s!0 s!0 s!0 s!0)))
 (let ((?x1321 (* p!5 q!3 q!3 q!3 b!2 b!2 r!1 r!1 s!0 s!0 s!0 s!0)))
 (let ((?x501 (+ ?x1322 (* 6 ?x1321) (* (- 3) ?x1316) ?x1313 (* (- 2) ?x1312) ?x1308 (* 3 ?x1305) (* (- 6) ?x1307) ?x904 (* (- 1) ?x1299) (* 2 ?x1298) ?x903 ?x1896 ?x1294 ?x2147 (* 3 (* p!5 p!5 q!3 q!3 b!2)) (* (- 3) (* p!5 q!3 q!3 q!3 b!2)) ?x1285 ?x2166 (* p!5 p!5 q!3 b!2 r!1 r!1 r!1 s!0 s!0 s!0) ?x1282 ?x366 ?x506 ?x371 ?x373 ?x375 ?x378 ?x381 ?x374 ?x510 ?x384 ?x385 ?x389 ?x508 ?x392 ?x394 (* p!5 p!5 a!4 q!3 s!0 s!0 s!0 s!0 s!0 s!0) ?x395 ?x503 ?x403 (* a!4 q!3 q!3 q!3 s!0 s!0 s!0 s!0 s!0 s!0) ?x407 ?x417)))
 (let ((?x1043 (+ ?x448 ?x151 ?x41 ?x618)))
 (let ((?x908 (* 3 (* p!5 p!5 a!4 q!3 r!1 r!1 r!1 r!1 s!0 s!0))))
 (let ((?x1334 (* (- 3) (* p!5 p!5 p!5 a!4 r!1 r!1 r!1 r!1 s!0 s!0))))
 (let ((?x1381 (* (- 3) (* p!5 p!5 a!4 q!3 r!1 r!1 r!1 r!1 r!1 s!0))))
 (let ((?x1338 (* 3 (* p!5 p!5 p!5 a!4 r!1 r!1 r!1 r!1 r!1 s!0))))
 (let ((?x910 (* (- 1) (* p!5 p!5 p!5 a!4 r!1 r!1 r!1 r!1 r!1 r!1))))
 (let ((?x915 (* p!5 p!5 p!5 a!4 q!3 q!3 r!1 r!1 r!1 s!0 s!0 s!0)))
 (let ((?x1070 (* p!5 p!5 p!5 p!5 a!4 q!3 r!1 r!1 r!1 s!0 s!0 s!0)))
 (let ((?x1065 (* p!5 p!5 p!5 p!5 p!5 a!4 r!1 r!1 r!1 s!0 s!0 s!0)))
 (let ((?x233 (* p!5 p!5 p!5 a!4 q!3 q!3 r!1 r!1 r!1 r!1 s!0 s!0)))
 (let ((?x789 (* p!5 p!5 p!5 p!5 a!4 q!3 r!1 r!1 r!1 r!1 s!0 s!0)))
 (let ((?x787 (* p!5 p!5 p!5 p!5 p!5 a!4 r!1 r!1 r!1 r!1 s!0 s!0)))
 (let ((?x777 (* p!5 p!5 p!5 a!4 q!3 q!3 r!1 r!1 r!1 r!1 r!1 s!0)))
 (let ((?x2141 (* p!5 p!5 p!5 p!5 a!4 q!3 r!1 r!1 r!1 r!1 r!1 s!0)))
 (let ((?x1984 (* p!5 p!5 p!5 p!5 p!5 a!4 r!1 r!1 r!1 r!1 r!1 s!0)))
 (let ((?x2080 (* p!5 p!5 p!5 a!4 q!3 q!3 r!1 r!1 r!1 r!1 r!1 r!1)))
 (let ((?x1051 (* p!5 p!5 p!5 p!5 a!4 q!3 r!1 r!1 r!1 r!1 r!1 r!1)))
 (let ((?x420 (* p!5 p!5 p!5 p!5 p!5 a!4 r!1 r!1 r!1 r!1 r!1 r!1)))
 (let ((?x411 (+ ?x911 q!3)))
 (let ((?x472 (* ?x1291 ?x1291 ?x1291 ?x1354 ?x1354 ?x411 ?x411 r!1 r!1 r!1 p!5 p!5)))
 (let ((?x1327 (+ ?x1896 ?x2147 ?x2166 ?x472 (* (- 1) ?x420) (* 2 ?x1051) (* (- 1) ?x2080) (* 3 ?x1984) (* (- 6) ?x2141) (* 3 ?x777) (* (- 3) ?x787) (* 6 ?x789) (* (- 3) ?x233) ?x1065 (* (- 2) ?x1070) ?x915 (* 3 (* p!5 p!5 q!3 q!3)) (* (- 3) (* p!5 p!5 p!5 q!3)) ?x1355 (* (- 1) (* p!5 p!5 p!5 p!5 a!4)) ?x1384 (* p!5 p!5 p!5 a!4 q!3) ?x910 (* p!5 p!5 a!4 q!3 r!1 r!1 r!1 r!1 r!1 r!1) ?x1338 ?x1381 ?x1334 ?x908 (* p!5 p!5 p!5 a!4 r!1 r!1 r!1 s!0 s!0 s!0))))
 (let ((?x848 (+ (* b!2 q00 r00) (* (- 1) (* b!2 p00 s00)) (* s!0 p00 b00) (* (- 1) (* q!3 r00 b00)) (* q!3 s00 a00) (* (- 1) (* s!0 q00 a00)))))
 (let ((?x1664 (+ (* a!4 p00 s00) (* (- 1) (* a!4 q00 r00)) (* p!5 r00 b00) (* (- 1) (* r!1 p00 b00)) (* (- 1) (* p!5 s00 a00)) (* r!1 q00 a00))))
 (let (($x1320 (= (+ (* a!4 q!3) (* (- 1) ?x146) (* p00 b00) (* (- 1) ?x2177)) 0)))
 (let (($x1343 (= (+ (* a!4 s!0) (* (- 1) ?x1050) (* (- 1) ?x142) (* r00 b00)) 0)))
 (let (($x429 (and (= ?x1043 0) $x1343 $x1320 (= ?x1664 0) (= ?x848 0) (or (not (= (* ?x1043 ?x1327) 0)) (not (= (* ?x1043 ?x501) 0))))))
 (let (($x1570 (exists ((p Int) (a Int) (q Int) (b Int) (r Int) (s Int) )(! (let ((?x287 (+ p (* (- 1) q))))
 (let ((?x352 (+ a (* (- 1) b))))
 (let ((?x268 (* (- 1) s)))
 (let ((?x270 (+ r ?x268)))
 (let ((?x2014 (* ?x270 ?x270 ?x270 ?x352 ?x287 ?x287 ?x287 s s s q q)))
 (let ((?x1464 (* (- 1) (* q q q b s s s s s s))))
 (let ((?x1393 (* a q q q s s s s s s)))
 (let ((?x1519 (* 2 (* p q q b s s s s s s))))
 (let ((?x1516 (* (- 2) (* p a q q s s s s s s))))
 (let ((?x1460 (* (- 1) (* p p q b s s s s s s))))
 (let ((?x1347 (* p p a q s s s s s s)))
 (let ((?x1511 (* 3 (* q q q b r s s s s s))))
 (let ((?x1508 (* (- 3) (* a q q q r s s s s s))))
 (let ((?x1505 (* (- 6) (* p q q b r s s s s s))))
 (let ((?x1502 (* 6 (* p a q q r s s s s s))))
 (let ((?x1499 (* 3 (* p p q b r s s s s s))))
 (let ((?x1496 (* (- 3) (* p p a q r s s s s s))))
 (let ((?x1493 (* (- 3) (* q q q b r r s s s s))))
 (let ((?x1490 (* 3 (* a q q q r r s s s s))))
 (let ((?x1487 (* 6 (* p q q b r r s s s s))))
 (let ((?x1484 (* (- 6) (* p a q q r r s s s s))))
 (let ((?x1481 (* (- 3) (* p p q b r r s s s s))))
 (let ((?x1478 (* 3 (* p p a q r r s s s s))))
 (let ((?x970 (* q q q b r r r s s s)))
 (let ((?x1445 (* (- 1) (* a q q q r r r s s s))))
 (let ((?x1473 (* (- 2) (* p q q b r r r s s s))))
 (let ((?x1470 (* 2 (* p a q q r r r s s s))))
 (let ((?x926 (* p p q b r r r s s s)))
 (let ((?x1441 (* (- 1) (* p p a q r r r s s s))))
 (let ((?x800 (* q q q q b)))
 (let ((?x837 (* (- 3) (* p q q q b))))
 (let ((?x834 (* 3 (* p p q q b))))
 (let ((?x827 (* (- 1) (* p p p q b))))
 (let ((?x693 (* q q q q)))
 (let ((?x709 (* (- 1) (* p q q q))))
 (let ((?x648 (* (- 1) (* q q q q b b s s s s s s))))
 (let ((?x667 (* 2 (* p q q q b b s s s s s s))))
 (let ((?x623 (* (- 1) (* p p q q b b s s s s s s))))
 (let ((?x665 (* 3 (* q q q q b b r s s s s s))))
 (let ((?x664 (* (- 6) (* p q q q b b r s s s s s))))
 (let ((?x662 (* 3 (* p p q q b b r s s s s s))))
 (let ((?x438 (* p p q q b b r r r s s s)))
 (let ((?x655 (* (- 2) (* p q q q b b r r r s s s))))
 (let ((?x414 (* q q q q b b r r r s s s)))
 (let ((?x657 (* (- 3) (* p p q q b b r r s s s s))))
 (let ((?x659 (* 6 (* p q q q b b r r s s s s))))
 (let ((?x660 (* (- 3) (* q q q q b b r r s s s s))))
 (let ((?x216 (+ ?x660 ?x659 ?x657 ?x414 ?x655 ?x438 ?x662 ?x664 ?x665 ?x623 ?x667 ?x648 ?x709 ?x693 ?x827 ?x834 ?x837 ?x800 ?x1441 ?x926 ?x1470 ?x1473 ?x1445 ?x970 ?x1478 ?x1481 ?x1484 ?x1487 ?x1490 ?x1493 ?x1496 ?x1499 ?x1502 ?x1505 ?x1508 ?x1511 ?x1347 ?x1460 ?x1516 ?x1519 ?x1393 ?x1464 ?x2014)))
 (let ((?x135 (* (- 1) (* q r))))
 (let ((?x41 (* q00 r00)))
 (let ((?x37 (* p00 s00)))
 (let ((?x151 (* (- 1) ?x37)))
 (let ((?x33 (* p s)))
 (let ((?x165 (+ ?x33 ?x151 ?x41 ?x135)))
 (let ((?x2123 (* p p p a r r r s s s)))
 (let ((?x2173 (* 3 (* p p a q r r r r s s))))
 (let ((?x2170 (* (- 3) (* p p p a r r r r s s))))
 (let ((?x2167 (* (- 3) (* p p a q r r r r r s))))
 (let ((?x2164 (* 3 (* p p p a r r r r r s))))
 (let ((?x2017 (* p p a q r r r r r r)))
 (let ((?x2152 (* (- 1) (* p p p a r r r r r r))))
 (let ((?x1937 (* p p p a q)))
 (let ((?x1932 (* p p p p b)))
 (let ((?x1961 (* (- 1) (* p p p p a))))
 (let ((?x1898 (* p p p p)))
 (let ((?x1827 (* (- 3) (* p p p q))))
 (let ((?x1830 (* 3 (* p p q q))))
 (let ((?x1767 (* p p p a q q r r r s s s)))
 (let ((?x1781 (* (- 2) (* p p p p a q r r r s s s))))
 (let ((?x1745 (* p p p p p a r r r s s s)))
 (let ((?x1780 (* (- 3) (* p p p a q q r r r r s s))))
 (let ((?x1779 (* 6 (* p p p p a q r r r r s s))))
 (let ((?x1778 (* (- 3) (* p p p p p a r r r r s s))))
 (let ((?x1777 (* 3 (* p p p a q q r r r r r s))))
 (let ((?x1776 (* (- 6) (* p p p p a q r r r r r s))))
 (let ((?x1775 (* 3 (* p p p p p a r r r r r s))))
 (let ((?x1550 (* (- 1) (* p p p a q q r r r r r r))))
 (let ((?x1774 (* 2 (* p p p p a q r r r r r r))))
 (let ((?x1468 (* (- 1) (* p p p p p a r r r r r r))))
 (let ((?x478 (* (- 1) p)))
 (let ((?x441 (+ ?x478 q)))
 (let ((?x1789 (* (- 1) a)))
 (let ((?x1793 (+ ?x1789 b)))
 (let ((?x696 (* (- 1) r)))
 (let ((?x705 (+ ?x696 s)))
 (let ((?x271 (+ ?x709 ?x827 ?x1441 (* ?x705 ?x705 ?x705 ?x1793 ?x1793 ?x441 ?x441 r r r p p) ?x1468 ?x1774 ?x1550 ?x1775 ?x1776 ?x1777 ?x1778 ?x1779 ?x1780 ?x1745 ?x1781 ?x1767 ?x1830 ?x1827 ?x1898 ?x1961 ?x1932 ?x1937 ?x2152 ?x2017 ?x2164 ?x2167 ?x2170 ?x2173 ?x2123)))
 (let ((?x72 (* b q00 r00)))
 (let ((?x322 (+ ?x72 (* (- 1) (* b p00 s00)) (* s p00 b00) (* (- 1) (* q r00 b00)) (* q s00 a00) (* (- 1) (* s q00 a00)))))
 (let (($x327 (= ?x322 0)))
 (let ((?x63 (* a p00 s00)))
 (let ((?x258 (+ ?x63 (* (- 1) (* a q00 r00)) (* p r00 b00) (* (- 1) (* r p00 b00)) (* (- 1) (* p s00 a00)) (* r q00 a00))))
 (let (($x259 (= ?x258 0)))
 (let ((?x147 (* p00 b00)))
 (let ((?x146 (* q00 a00)))
 (let ((?x190 (* (- 1) ?x146)))
 (let (($x193 (= (+ (* a q) ?x190 ?x147 (* (- 1) (* p b))) 0)))
 (let ((?x160 (* r00 b00)))
 (let ((?x142 (* s00 a00)))
 (let ((?x149 (* (- 1) ?x142)))
 (let ((?x49 (* a s)))
 (let (($x175 (= (+ ?x49 (* (- 1) (* b r)) ?x149 ?x160) 0)))
 (let (($x170 (= ?x165 0)))
 (and $x170 $x175 $x193 $x259 $x327 (or (not (= (* ?x165 ?x271) 0)) (not (= (* ?x165 ?x216) 0)))))))))))))))))))))))))))))))))))))))))))))))))))))))))))))))))))))))))))))))))))))))))))))))))))))))))) :qid k!39))
 ))
 (let (($x1651 (exists ((p Int) (a Int) (q Int) (b Int) (r Int) (s Int) )(! (let ((?x478 (* (- 1) p)))
 (let ((?x1790 (+ q ?x478)))
 (let ((?x696 (* (- 1) r)))
 (let ((?x756 (+ s ?x696)))
 (let ((?x1789 (* (- 1) a)))
 (let ((?x362 (+ b ?x1789)))
 (let ((?x984 (+ (* ?x756 ?x756 ?x756 ?x1790 ?x1790 r r r a p p p) (* ?x756 ?x756 ?x756 ?x362 ?x362 ?x1790 ?x1790 r r r p p) (* (- 1) (* ?x1790 ?x1790 ?x1790 p)) (* (- 1) (* ?x362 ?x1790 p p p)) (* (- 1) (* ?x756 ?x756 ?x756 ?x1790 r r r a p p)))))
 (let ((?x41 (* q00 r00)))
 (let ((?x37 (* p00 s00)))
 (let ((?x151 (* (- 1) ?x37)))
 (let (($x1196 (= (* (+ (* (- 1) (* ?x1790 r)) (* ?x756 p) ?x151 ?x41) ?x984) 0)))
 (let ((?x287 (+ p (* (- 1) q))))
 (let ((?x352 (+ a (* (- 1) b))))
 (let ((?x268 (* (- 1) s)))
 (let ((?x270 (+ r ?x268)))
 (let ((?x2014 (* ?x270 ?x270 ?x270 ?x352 ?x287 ?x287 ?x287 s s s q q)))
 (let ((?x674 (+ ?x2014 (* ?x270 ?x270 ?x270 ?x287 ?x287 s s s b b q q) (* (- 1) (* ?x287 q q q)) (* (- 1) (* ?x287 ?x287 ?x287 b q)) (* (- 1) (* ?x270 ?x270 ?x270 ?x352 ?x287 ?x287 s s s q)))))
 (let (($x1172 (= (* (+ (* (- 1) (* ?x270 q)) (* ?x287 s) ?x151 ?x41) ?x674) 0)))
 (let (($x1202 (or (not $x1172) (not $x1196))))
 (let ((?x73 (* b00 p00 s)))
 (let ((?x2023 (+ (* q00 r00 b) ?x73 (* (- 1) (* b00 r00 q)) (* (- 1) (* p00 s00 b)) (* a00 s00 q) (* (- 1) (* a00 q00 s)))))
 (let (($x408 (= ?x2023 0)))
 (let ((?x69 (* a00 q00 r)))
 (let ((?x1532 (* p00 s00 a)))
 (let ((?x593 (* b00 r00 p)))
 (let ((?x2072 (+ ?x593 ?x1532 (* (- 1) (* b00 p00 r)) (* (- 1) (* q00 r00 a)) (* (- 1) (* a00 s00 p)) ?x69)))
 (let ((?x57 (* b00 p00)))
 (let ((?x850 (* q a)))
 (let (($x849 (= (+ ?x850 (* (- 1) (* a00 q00)) ?x57 (* (- 1) (* b p))) 0)))
 (let ((?x47 (* a00 s00)))
 (let ((?x823 (* r b)))
 (let (($x1020 (= (+ ?x823 ?x47 (* (- 1) (* s a)) (* (- 1) (* b00 r00))) 0)))
 (let (($x1193 (= (+ (* r q) (* (- 1) (* s p)) ?x37 (* (- 1) ?x41)) 0)))
 (and $x1193 $x1020 $x849 (= ?x2072 0) $x408 $x1202)))))))))))))))))))))))))))))))))) :qid k!39))
 ))
 (let ((?x1577 (lambda ((p Int) (a Int) (q Int) (b Int) (r Int) (s Int) )(let ((?x287 (+ p (* (- 1) q))))
 (let ((?x352 (+ a (* (- 1) b))))
 (let ((?x268 (* (- 1) s)))
 (let ((?x270 (+ r ?x268)))
 (let ((?x2014 (* ?x270 ?x270 ?x270 ?x352 ?x287 ?x287 ?x287 s s s q q)))
 (let ((?x1464 (* (- 1) (* q q q b s s s s s s))))
 (let ((?x1393 (* a q q q s s s s s s)))
 (let ((?x1519 (* 2 (* p q q b s s s s s s))))
 (let ((?x1516 (* (- 2) (* p a q q s s s s s s))))
 (let ((?x1460 (* (- 1) (* p p q b s s s s s s))))
 (let ((?x1347 (* p p a q s s s s s s)))
 (let ((?x1511 (* 3 (* q q q b r s s s s s))))
 (let ((?x1508 (* (- 3) (* a q q q r s s s s s))))
 (let ((?x1505 (* (- 6) (* p q q b r s s s s s))))
 (let ((?x1502 (* 6 (* p a q q r s s s s s))))
 (let ((?x1499 (* 3 (* p p q b r s s s s s))))
 (let ((?x1496 (* (- 3) (* p p a q r s s s s s))))
 (let ((?x1493 (* (- 3) (* q q q b r r s s s s))))
 (let ((?x1490 (* 3 (* a q q q r r s s s s))))
 (let ((?x1487 (* 6 (* p q q b r r s s s s))))
 (let ((?x1484 (* (- 6) (* p a q q r r s s s s))))
 (let ((?x1481 (* (- 3) (* p p q b r r s s s s))))
 (let ((?x1478 (* 3 (* p p a q r r s s s s))))
 (let ((?x970 (* q q q b r r r s s s)))
 (let ((?x1445 (* (- 1) (* a q q q r r r s s s))))
 (let ((?x1473 (* (- 2) (* p q q b r r r s s s))))
 (let ((?x1470 (* 2 (* p a q q r r r s s s))))
 (let ((?x926 (* p p q b r r r s s s)))
 (let ((?x1441 (* (- 1) (* p p a q r r r s s s))))
 (let ((?x800 (* q q q q b)))
 (let ((?x837 (* (- 3) (* p q q q b))))
 (let ((?x834 (* 3 (* p p q q b))))
 (let ((?x827 (* (- 1) (* p p p q b))))
 (let ((?x693 (* q q q q)))
 (let ((?x709 (* (- 1) (* p q q q))))
 (let ((?x648 (* (- 1) (* q q q q b b s s s s s s))))
 (let ((?x667 (* 2 (* p q q q b b s s s s s s))))
 (let ((?x623 (* (- 1) (* p p q q b b s s s s s s))))
 (let ((?x665 (* 3 (* q q q q b b r s s s s s))))
 (let ((?x664 (* (- 6) (* p q q q b b r s s s s s))))
 (let ((?x662 (* 3 (* p p q q b b r s s s s s))))
 (let ((?x438 (* p p q q b b r r r s s s)))
 (let ((?x655 (* (- 2) (* p q q q b b r r r s s s))))
 (let ((?x414 (* q q q q b b r r r s s s)))
 (let ((?x657 (* (- 3) (* p p q q b b r r s s s s))))
 (let ((?x659 (* 6 (* p q q q b b r r s s s s))))
 (let ((?x660 (* (- 3) (* q q q q b b r r s s s s))))
 (let ((?x216 (+ ?x660 ?x659 ?x657 ?x414 ?x655 ?x438 ?x662 ?x664 ?x665 ?x623 ?x667 ?x648 ?x709 ?x693 ?x827 ?x834 ?x837 ?x800 ?x1441 ?x926 ?x1470 ?x1473 ?x1445 ?x970 ?x1478 ?x1481 ?x1484 ?x1487 ?x1490 ?x1493 ?x1496 ?x1499 ?x1502 ?x1505 ?x1508 ?x1511 ?x1347 ?x1460 ?x1516 ?x1519 ?x1393 ?x1464 ?x2014)))
 (let ((?x135 (* (- 1) (* q r))))
 (let ((?x41 (* q00 r00)))
 (let ((?x37 (* p00 s00)))
 (let ((?x151 (* (- 1) ?x37)))
 (let ((?x33 (* p s)))
 (let ((?x165 (+ ?x33 ?x151 ?x41 ?x135)))
 (let ((?x2123 (* p p p a r r r s s s)))
 (let ((?x2173 (* 3 (* p p a q r r r r s s))))
 (let ((?x2170 (* (- 3) (* p p p a r r r r s s))))
 (let ((?x2167 (* (- 3) (* p p a q r r r r r s))))
 (let ((?x2164 (* 3 (* p p p a r r r r r s))))
 (let ((?x2017 (* p p a q r r r r r r)))
 (let ((?x2152 (* (- 1) (* p p p a r r r r r r))))
 (let ((?x1937 (* p p p a q)))
 (let ((?x1932 (* p p p p b)))
 (let ((?x1961 (* (- 1) (* p p p p a))))
 (let ((?x1898 (* p p p p)))
 (let ((?x1827 (* (- 3) (* p p p q))))
 (let ((?x1830 (* 3 (* p p q q))))
 (let ((?x1767 (* p p p a q q r r r s s s)))
 (let ((?x1781 (* (- 2) (* p p p p a q r r r s s s))))
 (let ((?x1745 (* p p p p p a r r r s s s)))
 (let ((?x1780 (* (- 3) (* p p p a q q r r r r s s))))
 (let ((?x1779 (* 6 (* p p p p a q r r r r s s))))
 (let ((?x1778 (* (- 3) (* p p p p p a r r r r s s))))
 (let ((?x1777 (* 3 (* p p p a q q r r r r r s))))
 (let ((?x1776 (* (- 6) (* p p p p a q r r r r r s))))
 (let ((?x1775 (* 3 (* p p p p p a r r r r r s))))
 (let ((?x1550 (* (- 1) (* p p p a q q r r r r r r))))
 (let ((?x1774 (* 2 (* p p p p a q r r r r r r))))
 (let ((?x1468 (* (- 1) (* p p p p p a r r r r r r))))
 (let ((?x478 (* (- 1) p)))
 (let ((?x441 (+ ?x478 q)))
 (let ((?x1789 (* (- 1) a)))
 (let ((?x1793 (+ ?x1789 b)))
 (let ((?x696 (* (- 1) r)))
 (let ((?x705 (+ ?x696 s)))
 (let ((?x271 (+ ?x709 ?x827 ?x1441 (* ?x705 ?x705 ?x705 ?x1793 ?x1793 ?x441 ?x441 r r r p p) ?x1468 ?x1774 ?x1550 ?x1775 ?x1776 ?x1777 ?x1778 ?x1779 ?x1780 ?x1745 ?x1781 ?x1767 ?x1830 ?x1827 ?x1898 ?x1961 ?x1932 ?x1937 ?x2152 ?x2017 ?x2164 ?x2167 ?x2170 ?x2173 ?x2123)))
 (let ((?x72 (* b q00 r00)))
 (let ((?x322 (+ ?x72 (* (- 1) (* b p00 s00)) (* s p00 b00) (* (- 1) (* q r00 b00)) (* q s00 a00) (* (- 1) (* s q00 a00)))))
 (let (($x327 (= ?x322 0)))
 (let ((?x63 (* a p00 s00)))
 (let ((?x258 (+ ?x63 (* (- 1) (* a q00 r00)) (* p r00 b00) (* (- 1) (* r p00 b00)) (* (- 1) (* p s00 a00)) (* r q00 a00))))
 (let (($x259 (= ?x258 0)))
 (let ((?x147 (* p00 b00)))
 (let ((?x146 (* q00 a00)))
 (let ((?x190 (* (- 1) ?x146)))
 (let (($x193 (= (+ (* a q) ?x190 ?x147 (* (- 1) (* p b))) 0)))
 (let ((?x160 (* r00 b00)))
 (let ((?x142 (* s00 a00)))
 (let ((?x149 (* (- 1) ?x142)))
 (let ((?x49 (* a s)))
 (let (($x175 (= (+ ?x49 (* (- 1) (* b r)) ?x149 ?x160) 0)))
 (let (($x170 (= ?x165 0)))
 (let (($x1390 (and $x170 $x175 $x193 $x259 $x327 (or (not (= (* ?x165 ?x271) 0)) (not (= (* ?x165 ?x216) 0))))))
 (let ((?x1790 (+ q ?x478)))
 (let ((?x756 (+ s ?x696)))
 (let ((?x362 (+ b ?x1789)))
 (let ((?x984 (+ (* ?x756 ?x756 ?x756 ?x1790 ?x1790 r r r a p p p) (* ?x756 ?x756 ?x756 ?x362 ?x362 ?x1790 ?x1790 r r r p p) (* (- 1) (* ?x1790 ?x1790 ?x1790 p)) (* (- 1) (* ?x362 ?x1790 p p p)) (* (- 1) (* ?x756 ?x756 ?x756 ?x1790 r r r a p p)))))
 (let (($x1196 (= (* (+ (* (- 1) (* ?x1790 r)) (* ?x756 p) ?x151 ?x41) ?x984) 0)))
 (let ((?x674 (+ ?x2014 (* ?x270 ?x270 ?x270 ?x287 ?x287 s s s b b q q) (* (- 1) (* ?x287 q q q)) (* (- 1) (* ?x287 ?x287 ?x287 b q)) (* (- 1) (* ?x270 ?x270 ?x270 ?x352 ?x287 ?x287 s s s q)))))
 (let (($x1172 (= (* (+ (* (- 1) (* ?x270 q)) (* ?x287 s) ?x151 ?x41) ?x674) 0)))
 (let (($x1202 (or (not $x1172) (not $x1196))))
 (let ((?x73 (* b00 p00 s)))
 (let ((?x2023 (+ (* q00 r00 b) ?x73 (* (- 1) (* b00 r00 q)) (* (- 1) (* p00 s00 b)) (* a00 s00 q) (* (- 1) (* a00 q00 s)))))
 (let (($x408 (= ?x2023 0)))
 (let ((?x69 (* a00 q00 r)))
 (let ((?x1532 (* p00 s00 a)))
 (let ((?x593 (* b00 r00 p)))
 (let ((?x2072 (+ ?x593 ?x1532 (* (- 1) (* b00 p00 r)) (* (- 1) (* q00 r00 a)) (* (- 1) (* a00 s00 p)) ?x69)))
 (let ((?x57 (* b00 p00)))
 (let ((?x850 (* q a)))
 (let (($x849 (= (+ ?x850 (* (- 1) (* a00 q00)) ?x57 (* (- 1) (* b p))) 0)))
 (let ((?x47 (* a00 s00)))
 (let ((?x823 (* r b)))
 (let (($x1020 (= (+ ?x823 ?x47 (* (- 1) (* s a)) (* (- 1) (* b00 r00))) 0)))
 (let (($x1193 (= (+ (* r q) (* (- 1) (* s p)) ?x37 (* (- 1) ?x41)) 0)))
 (let (($x2056 (and $x1193 $x1020 $x849 (= ?x2072 0) $x408 $x1202)))
 (rewrite (= $x2056 $x1390)))))))))))))))))))))))))))))))))))))))))))))))))))))))))))))))))))))))))))))))))))))))))))))))))))))))))))))))))))))))))))))))))
 ))
 (let (($x2108 (exists ((p Int) (a Int) (q Int) (b Int) (r Int) (s Int) )(! (let ((?x478 (* (- 1) p)))
 (let ((?x1790 (+ q ?x478)))
 (let ((?x696 (* (- 1) r)))
 (let ((?x756 (+ s ?x696)))
 (let ((?x1789 (* (- 1) a)))
 (let ((?x362 (+ b ?x1789)))
 (let ((?x984 (+ (* ?x756 ?x756 ?x756 ?x1790 ?x1790 r r r a p p p) (* ?x756 ?x756 ?x756 ?x362 ?x362 ?x1790 ?x1790 r r r p p) (* (- 1) (* ?x1790 ?x1790 ?x1790 p)) (* (- 1) (* ?x362 ?x1790 p p p)) (* (- 1) (* ?x756 ?x756 ?x756 ?x1790 r r r a p p)))))
 (let ((?x41 (* q00 r00)))
 (let ((?x37 (* p00 s00)))
 (let ((?x151 (* (- 1) ?x37)))
 (let (($x1196 (= (* (+ (* (- 1) (* ?x1790 r)) (* ?x756 p) ?x151 ?x41) ?x984) 0)))
 (let ((?x287 (+ p (* (- 1) q))))
 (let ((?x352 (+ a (* (- 1) b))))
 (let ((?x268 (* (- 1) s)))
 (let ((?x270 (+ r ?x268)))
 (let ((?x2014 (* ?x270 ?x270 ?x270 ?x352 ?x287 ?x287 ?x287 s s s q q)))
 (let ((?x674 (+ ?x2014 (* ?x270 ?x270 ?x270 ?x287 ?x287 s s s b b q q) (* (- 1) (* ?x287 q q q)) (* (- 1) (* ?x287 ?x287 ?x287 b q)) (* (- 1) (* ?x270 ?x270 ?x270 ?x352 ?x287 ?x287 s s s q)))))
 (let (($x1172 (= (* (+ (* (- 1) (* ?x270 q)) (* ?x287 s) ?x151 ?x41) ?x674) 0)))
 (let (($x1202 (or (not $x1172) (not $x1196))))
 (let ((?x73 (* b00 p00 s)))
 (let ((?x2023 (+ (* q00 r00 b) ?x73 (* (- 1) (* b00 r00 q)) (* (- 1) (* p00 s00 b)) (* a00 s00 q) (* (- 1) (* a00 q00 s)))))
 (let (($x408 (= ?x2023 0)))
 (let ((?x2126 (* a00 s00 p)))
 (let ((?x1667 (* q00 r00 a)))
 (let ((?x65 (* b00 p00 r)))
 (let ((?x1656 (+ (* (- 1) (* b00 r00 p)) (* (- 1) (* p00 s00 a)) ?x65 ?x1667 ?x2126 (* (- 1) (* a00 q00 r)))))
 (let ((?x59 (* b p)))
 (let ((?x55 (* a00 q00)))
 (let (($x1883 (= (+ (* (- 1) (* q a)) ?x55 (* (- 1) (* b00 p00)) ?x59) 0)))
 (let ((?x51 (* b00 r00)))
 (let ((?x681 (* s a)))
 (let (($x1649 (= (+ (* (- 1) (* r b)) (* (- 1) (* a00 s00)) ?x681 ?x51) 0)))
 (and (= (+ (* (- 1) (* r q)) (* s p) ?x151 ?x41) 0) $x1649 $x1883 (= ?x1656 0) $x408 $x1202))))))))))))))))))))))))))))))))) :qid k!39))
 ))
 (let ((?x601 (lambda ((p Int) (a Int) (q Int) (b Int) (r Int) (s Int) )(let ((?x478 (* (- 1) p)))
 (let ((?x1790 (+ q ?x478)))
 (let ((?x696 (* (- 1) r)))
 (let ((?x756 (+ s ?x696)))
 (let ((?x1789 (* (- 1) a)))
 (let ((?x362 (+ b ?x1789)))
 (let ((?x984 (+ (* ?x756 ?x756 ?x756 ?x1790 ?x1790 r r r a p p p) (* ?x756 ?x756 ?x756 ?x362 ?x362 ?x1790 ?x1790 r r r p p) (* (- 1) (* ?x1790 ?x1790 ?x1790 p)) (* (- 1) (* ?x362 ?x1790 p p p)) (* (- 1) (* ?x756 ?x756 ?x756 ?x1790 r r r a p p)))))
 (let ((?x41 (* q00 r00)))
 (let ((?x37 (* p00 s00)))
 (let ((?x151 (* (- 1) ?x37)))
 (let (($x1196 (= (* (+ (* (- 1) (* ?x1790 r)) (* ?x756 p) ?x151 ?x41) ?x984) 0)))
 (let ((?x287 (+ p (* (- 1) q))))
 (let ((?x352 (+ a (* (- 1) b))))
 (let ((?x268 (* (- 1) s)))
 (let ((?x270 (+ r ?x268)))
 (let ((?x2014 (* ?x270 ?x270 ?x270 ?x352 ?x287 ?x287 ?x287 s s s q q)))
 (let ((?x674 (+ ?x2014 (* ?x270 ?x270 ?x270 ?x287 ?x287 s s s b b q q) (* (- 1) (* ?x287 q q q)) (* (- 1) (* ?x287 ?x287 ?x287 b q)) (* (- 1) (* ?x270 ?x270 ?x270 ?x352 ?x287 ?x287 s s s q)))))
 (let (($x1172 (= (* (+ (* (- 1) (* ?x270 q)) (* ?x287 s) ?x151 ?x41) ?x674) 0)))
 (let (($x1202 (or (not $x1172) (not $x1196))))
 (let ((?x73 (* b00 p00 s)))
 (let ((?x2023 (+ (* q00 r00 b) ?x73 (* (- 1) (* b00 r00 q)) (* (- 1) (* p00 s00 b)) (* a00 s00 q) (* (- 1) (* a00 q00 s)))))
 (let (($x408 (= ?x2023 0)))
 (let ((?x69 (* a00 q00 r)))
 (let ((?x1532 (* p00 s00 a)))
 (let ((?x593 (* b00 r00 p)))
 (let ((?x2072 (+ ?x593 ?x1532 (* (- 1) (* b00 p00 r)) (* (- 1) (* q00 r00 a)) (* (- 1) (* a00 s00 p)) ?x69)))
 (let ((?x57 (* b00 p00)))
 (let ((?x850 (* q a)))
 (let (($x849 (= (+ ?x850 (* (- 1) (* a00 q00)) ?x57 (* (- 1) (* b p))) 0)))
 (let ((?x47 (* a00 s00)))
 (let ((?x823 (* r b)))
 (let (($x1020 (= (+ ?x823 ?x47 (* (- 1) (* s a)) (* (- 1) (* b00 r00))) 0)))
 (let (($x1193 (= (+ (* r q) (* (- 1) (* s p)) ?x37 (* (- 1) ?x41)) 0)))
 (let (($x2056 (and $x1193 $x1020 $x849 (= ?x2072 0) $x408 $x1202)))
 (let ((?x2126 (* a00 s00 p)))
 (let ((?x1667 (* q00 r00 a)))
 (let ((?x65 (* b00 p00 r)))
 (let (($x1224 (= (+ (* (- 1) ?x593) (* (- 1) ?x1532) ?x65 ?x1667 ?x2126 (* (- 1) ?x69)) 0)))
 (let (($x1883 (= (+ (* (- 1) ?x850) (* a00 q00) (* (- 1) ?x57) (* b p)) 0)))
 (let (($x1649 (= (+ (* (- 1) ?x823) (* (- 1) ?x47) (* s a) (* b00 r00)) 0)))
 (let (($x786 (and (= (+ (* (- 1) (* r q)) (* s p) ?x151 ?x41) 0) $x1649 $x1883 $x1224 $x408 $x1202)))
 (rewrite (= $x786 $x2056))))))))))))))))))))))))))))))))))))))))))))
 ))
 (let (($x126 (exists ((p Int) (a Int) (q Int) (b Int) (r Int) (s Int) )(! (let ((?x106 (- s r)))
 (let ((?x104 (- q p)))
 (let ((?x112 (- b a)))
 (let ((?x114 (+ (* a p p p ?x104 ?x104 r r r ?x106 ?x106 ?x106) (* ?x112 ?x112 p p ?x104 ?x104 r r r ?x106 ?x106 ?x106))))
 (let ((?x120 (- (- (- ?x114 (* p ?x104 ?x104 ?x104)) (* ?x112 p p p ?x104)) (* a p p ?x104 r r r ?x106 ?x106 ?x106))))
 (let ((?x41 (* q00 r00)))
 (let ((?x110 (+ (- (+ (* (- 1) ?x104 r) (* p ?x106)) (* p00 s00)) ?x41)))
 (let ((?x84 (- r s)))
 (let ((?x86 (- p q)))
 (let ((?x91 (- a b)))
 (let ((?x94 (+ (* ?x91 ?x86 ?x86 ?x86 q q ?x84 ?x84 ?x84 s s s) (* b b ?x86 ?x86 q q ?x84 ?x84 ?x84 s s s))))
 (let ((?x100 (- (- (- ?x94 (* ?x86 q q q)) (* b ?x86 ?x86 ?x86 q)) (* ?x91 ?x86 ?x86 q ?x84 ?x84 ?x84 s s s))))
 (let ((?x90 (+ (- (+ (* (- 1) q ?x84) (* ?x86 s)) (* p00 s00)) ?x41)))
 (let ((?x81 (* a00 q00 s)))
 (let ((?x76 (* b p00 s00)))
 (let ((?x77 (- (+ (* b q00 r00) (* b00 p00 s)) (* b00 q r00))))
 (let ((?x69 (* a00 q00 r)))
 (let ((?x66 (* a q00 r00)))
 (let ((?x65 (* b00 p00 r)))
 (let ((?x68 (+ (- (* (- 1) b00 p r00) (* a p00 s00)) ?x65 ?x66 (* a00 p s00))))
 (let ((?x59 (* b p)))
 (let ((?x60 (+ (- (+ (* (- 1) a q) (* a00 q00)) (* b00 p00)) ?x59)))
 (let ((?x51 (* b00 r00)))
 (let ((?x49 (* a s)))
 (let (($x53 (= (+ (- (* (- 1) b r) (* a00 s00)) ?x49 ?x51) 0)))
 (let ((?x42 (+ (- (+ (* (- 1) q r) (* p s)) (* p00 s00)) ?x41)))
 (and (= ?x42 0) $x53 (= ?x60 0) (= (- ?x68 ?x69) 0) (= (- (+ (- ?x77 ?x76) (* a00 q s00)) ?x81) 0) (or (not (= (* ?x90 ?x100) 0)) (not (= (* ?x110 ?x120) 0)))))))))))))))))))))))))))))) :qid k!39))
 ))
 (let ((?x2127 (lambda ((p Int) (a Int) (q Int) (b Int) (r Int) (s Int) )(let ((?x478 (* (- 1) p)))
 (let ((?x1790 (+ q ?x478)))
 (let ((?x696 (* (- 1) r)))
 (let ((?x756 (+ s ?x696)))
 (let ((?x1789 (* (- 1) a)))
 (let ((?x362 (+ b ?x1789)))
 (let ((?x984 (+ (* ?x756 ?x756 ?x756 ?x1790 ?x1790 r r r a p p p) (* ?x756 ?x756 ?x756 ?x362 ?x362 ?x1790 ?x1790 r r r p p) (* (- 1) (* ?x1790 ?x1790 ?x1790 p)) (* (- 1) (* ?x362 ?x1790 p p p)) (* (- 1) (* ?x756 ?x756 ?x756 ?x1790 r r r a p p)))))
 (let ((?x41 (* q00 r00)))
 (let ((?x37 (* p00 s00)))
 (let ((?x151 (* (- 1) ?x37)))
 (let (($x1196 (= (* (+ (* (- 1) (* ?x1790 r)) (* ?x756 p) ?x151 ?x41) ?x984) 0)))
 (let ((?x287 (+ p (* (- 1) q))))
 (let ((?x352 (+ a (* (- 1) b))))
 (let ((?x268 (* (- 1) s)))
 (let ((?x270 (+ r ?x268)))
 (let ((?x2014 (* ?x270 ?x270 ?x270 ?x352 ?x287 ?x287 ?x287 s s s q q)))
 (let ((?x674 (+ ?x2014 (* ?x270 ?x270 ?x270 ?x287 ?x287 s s s b b q q) (* (- 1) (* ?x287 q q q)) (* (- 1) (* ?x287 ?x287 ?x287 b q)) (* (- 1) (* ?x270 ?x270 ?x270 ?x352 ?x287 ?x287 s s s q)))))
 (let (($x1172 (= (* (+ (* (- 1) (* ?x270 q)) (* ?x287 s) ?x151 ?x41) ?x674) 0)))
 (let (($x1202 (or (not $x1172) (not $x1196))))
 (let ((?x73 (* b00 p00 s)))
 (let ((?x2023 (+ (* q00 r00 b) ?x73 (* (- 1) (* b00 r00 q)) (* (- 1) (* p00 s00 b)) (* a00 s00 q) (* (- 1) (* a00 q00 s)))))
 (let (($x408 (= ?x2023 0)))
 (let ((?x2126 (* a00 s00 p)))
 (let ((?x1667 (* q00 r00 a)))
 (let ((?x65 (* b00 p00 r)))
 (let ((?x1656 (+ (* (- 1) (* b00 r00 p)) (* (- 1) (* p00 s00 a)) ?x65 ?x1667 ?x2126 (* (- 1) (* a00 q00 r)))))
 (let ((?x59 (* b p)))
 (let ((?x55 (* a00 q00)))
 (let (($x1883 (= (+ (* (- 1) (* q a)) ?x55 (* (- 1) (* b00 p00)) ?x59) 0)))
 (let ((?x51 (* b00 r00)))
 (let ((?x681 (* s a)))
 (let (($x1649 (= (+ (* (- 1) (* r b)) (* (- 1) (* a00 s00)) ?x681 ?x51) 0)))
 (let (($x786 (and (= (+ (* (- 1) (* r q)) (* s p) ?x151 ?x41) 0) $x1649 $x1883 (= ?x1656 0) $x408 $x1202)))
 (let ((?x106 (- s r)))
 (let ((?x104 (- q p)))
 (let ((?x112 (- b a)))
 (let ((?x114 (+ (* a p p p ?x104 ?x104 r r r ?x106 ?x106 ?x106) (* ?x112 ?x112 p p ?x104 ?x104 r r r ?x106 ?x106 ?x106))))
 (let ((?x120 (- (- (- ?x114 (* p ?x104 ?x104 ?x104)) (* ?x112 p p p ?x104)) (* a p p ?x104 r r r ?x106 ?x106 ?x106))))
 (let ((?x121 (* (+ (- (+ (* (- 1) ?x104 r) (* p ?x106)) ?x37) ?x41) ?x120)))
 (let ((?x84 (- r s)))
 (let ((?x86 (- p q)))
 (let ((?x91 (- a b)))
 (let ((?x94 (+ (* ?x91 ?x86 ?x86 ?x86 q q ?x84 ?x84 ?x84 s s s) (* b b ?x86 ?x86 q q ?x84 ?x84 ?x84 s s s))))
 (let ((?x100 (- (- (- ?x94 (* ?x86 q q q)) (* b ?x86 ?x86 ?x86 q)) (* ?x91 ?x86 ?x86 q ?x84 ?x84 ?x84 s s s))))
 (let ((?x101 (* (+ (- (+ (* (- 1) q ?x84) (* ?x86 s)) ?x37) ?x41) ?x100)))
 (let ((?x81 (* a00 q00 s)))
 (let ((?x76 (* b p00 s00)))
 (let ((?x80 (+ (- (- (+ (* b q00 r00) ?x73) (* b00 q r00)) ?x76) (* a00 q s00))))
 (let ((?x69 (* a00 q00 r)))
 (let ((?x66 (* a q00 r00)))
 (let ((?x68 (+ (- (* (- 1) b00 p r00) (* a p00 s00)) ?x65 ?x66 (* a00 p s00))))
 (let (($x61 (= (+ (- (+ (* (- 1) a q) ?x55) (* b00 p00)) ?x59) 0)))
 (let (($x53 (= (+ (- (* (- 1) b r) (* a00 s00)) (* a s) ?x51) 0)))
 (let (($x44 (= (+ (- (+ (* (- 1) q r) (* p s)) ?x37) ?x41) 0)))
 (let (($x125 (and $x44 $x53 $x61 (= (- ?x68 ?x69) 0) (= (- ?x80 ?x81) 0) (or (not (= ?x101 0)) (not (= ?x121 0))))))
 (rewrite (= $x125 $x786))))))))))))))))))))))))))))))))))))))))))))))))))))))))))
 ))
 (let ((@x127 (asserted $x126)))
 (let ((@x1192 (mp (mp @x127 (quant-intro (proof-bind ?x2127) (= $x126 $x2108)) $x2108) (rewrite (= $x2108 $x2108)) $x2108)))
 (let ((@x1838 (mp (mp @x1192 (quant-intro (proof-bind ?x601) (= $x2108 $x1651)) $x1651) (quant-intro (proof-bind ?x1577) (= $x1651 $x1570)) $x1570)))
 (let ((@x643 (mp (mp~ @x1838 (sk (~ $x1570 $x429)) $x429) (rewrite (= $x429 $x2163)) $x2163)))
 (let ((@x637 (and-elim @x643 $x437)))
 (let ((@x145 (unit-resolution ((_ th-lemma arith triangle-eq) (or (not $x437) $x494)) @x637 $x494)))
 (let (($x1861 (<= ?x497 0)))
 (let ((@x1795 (unit-resolution ((_ th-lemma arith triangle-eq) (or (not $x437) $x1861)) @x637 $x1861)))
 (let (($x436 (not (<= ?x580 0))))
 (let (($x433 (>= ?x1854 0)))
 (let (($x541 (<= ?x1854 0)))
 (let ((@x498 (unit-resolution ((_ th-lemma arith triangle-eq) (or $x653 (not $x541) (not $x433))) (lemma ((_ th-lemma arith farkas 1 1 1) (hypothesis (not $x541)) @x1795 @x145 false) $x541) (lemma ((_ th-lemma arith farkas 1 1 1) (hypothesis (not $x433)) @x1795 @x145 false) $x433) $x653)))
 (let (($x548 (>= ?x580 0)))
 (let ((@x462 (unit-resolution ((_ th-lemma arith triangle-eq) (or $x551 $x436 (not $x548))) (lemma ((_ th-lemma arith farkas 1 1 1) (hypothesis (not $x548)) @x1795 @x145 false) $x548) (unit-resolution (and-elim @x643 $x650) @x498 $x452) $x436)))
 ((_ th-lemma arith farkas 1 1 1) @x462 @x1795 @x145 false)))))))))))))))))))))))))))))))))))))))))))))))))))))))))))))))))))))))))))))))))))))))))))))))))))))))))))))))))))))))))))))))))))))))))))))))))))))))))))))))))))))))))))))))))

(:added-eqs                 6
 :arith-assert-diseq        3
 :arith-assert-lower        43
 :arith-assert-upper        18
 :arith-conflicts           4
 :arith-eq-adapter          7
 :arith-fixed-eqs           6
 :arith-max-min             920
 :arith-nonlinear-bounds    24
 :arith-num-rows            14
 :arith-pivots              5
 :arith-pseudo-nonlinear    8
 :arith-row-summations      1
 :arith-tableau-max-columns 128
 :arith-tableau-max-rows    14
 :conflicts                 4
 :decisions                 7
 :del-clause                15
 :final-checks              4
 :max-memory                3.96
 :memory                    3.34
 :mk-bool-var               27
 :mk-clause                 24
 :num-allocs                1306516
 :num-checks                1
 :propagations              19
 :rlimit-count              10507
 :time                      0.01
 :total-time                0.02)
